c 
c G(k,n,p) graph
c graph gen seed     : 647391
c number of vertices : 60
c max number of edges: 900
c number of classes  : 2
c edge density       : 0.100000
c edge probability   : 0.200000
c data structure     : sparse
c
c           Graph Stats
c number of vertices  : 60
c nonisolated vertices: 59
c number of edges     : 175
c edge density        : 0.098870
c max degree          : 11
c avg degree          : 5.83
c min degree          : 0
p col 60 175
e 1 58
e 1 47
e 1 40
e 1 37
e 1 33
e 1 25
e 1 16
e 1 10
e 1 8
e 2 58
e 2 55
e 2 38
e 2 36
e 2 35
e 2 22
e 2 20
e 2 16
e 2 13
e 2 9
e 3 53
e 3 47
e 3 36
e 3 23
e 3 10
e 4 60
e 4 59
e 4 52
e 4 24
e 4 5
e 5 58
e 5 55
e 5 47
e 5 38
e 5 36
e 5 35
e 5 13
e 5 6
e 6 54
e 6 44
e 6 29
e 6 11
e 6 7
e 7 55
e 7 47
e 8 50
e 8 45
e 8 32
e 8 31
e 8 29
e 8 27
e 8 24
e 8 19
e 8 11
e 9 45
e 9 42
e 9 28
e 9 26
e 10 60
e 10 49
e 10 45
e 10 41
e 10 29
e 10 21
e 10 17
e 11 55
e 11 47
e 11 38
e 11 37
e 11 36
e 11 35
e 11 30
e 11 15
e 11 13
e 12 52
e 12 29
e 12 21
e 13 59
e 13 43
e 13 32
e 13 29
e 13 21
e 13 19
e 13 17
e 14 52
e 14 48
e 14 43
e 15 50
e 15 32
e 15 27
e 15 24
e 16 54
e 16 43
e 16 31
e 16 24
e 17 58
e 17 47
e 17 37
e 17 36
e 17 33
e 17 18
e 18 57
e 18 24
e 19 46
e 19 35
e 20 54
e 20 45
e 20 28
e 21 22
e 22 60
e 22 57
e 22 50
e 22 49
e 22 45
e 22 24
e 23 50
e 23 45
e 24 55
e 24 46
e 24 35
e 24 33
e 25 59
e 25 50
e 25 49
e 25 48
e 25 45
e 25 26
e 26 56
e 27 37
e 27 30
e 28 51
e 29 53
e 29 38
e 29 36
e 29 33
e 29 30
e 30 49
e 30 32
e 31 58
e 31 53
e 31 51
e 31 35
e 32 58
e 32 51
e 32 46
e 32 38
e 32 35
e 33 60
e 33 48
e 33 43
e 33 41
e 35 59
e 35 48
e 36 52
e 37 59
e 37 48
e 37 43
e 38 45
e 39 46
e 40 59
e 40 44
e 42 55
e 42 53
e 42 46
e 43 51
e 43 46
e 44 56
e 44 55
e 45 46
e 46 50
e 50 53
e 52 58
e 52 55
e 53 57
e 53 54
e 55 59
